problem_generation/data/GISP/train/er_n=66_m=1317_p=0.60_SET2_setparam=100.00_alpha=0.50_795.lp
maximize
OBJ:100x0 + 100x1 + 100x2 + 100x3 + 100x4 + 100x5 + 100x6 + 100x7 + 100x8 + 100x9 + 100x10 + 100x11 + 100x12 + 100x13 + 100x14 + 100x15 + 100x16 + 100x17 + 100x18 + 100x19 + 100x20 + 100x21 + 100x22 + 100x23 + 100x24 + 100x25 + 100x26 + 100x27 + 100x28 + 100x29 + 100x30 + 100x31 + 100x32 + 100x33 + 100x34 + 100x35 + 100x36 + 100x37 + 100x38 + 100x39 + 100x40 + 100x41 + 100x42 + 100x43 + 100x44 + 100x45 + 100x46 + 100x47 + 100x48 + 100x49 + 100x50 + 100x51 + 100x52 + 100x53 + 100x54 + 100x55 + 100x56 + 100x57 + 100x58 + 100x59 + 100x60 + 100x61 + 100x62 + 100x63 + 100x64 + 100x65 - y7_17 - y36_53 - y15_30 - y26_30 - y47_62 - y15_39 - y5_65 - y18_44 - y9_63 - y48_54 - y21_55 - y2_32 - y10_45 - y44_47 - y10_63 - y22_28 - y2_59 - y32_60 - y3_33 - y22_46 - y35_65 - y3_42 - y36_57 - y47_57 - y28_53 - y9_49 - y5_60 - y28_62 - y0_9 - y48_58 - y6_52 - y21_50 - y10_31 - y2_27 - y10_40 - y2_36 - y44_51 - y25_47 - y3_19 - y3_28 - y32_64 - y43_64 - y35_60 - y36_43 - y36_61 - y47_61 - y5_64 - y29_31 - y9_62 - y6_47 - y21_54 - y33_37 - y25_33 - y10_44 - y51_54 - y51_63 - y3_23 - y32_59 - y1_53 - y24_55 - y14_32 - y28_34 - y9_30 - y47_56 - y9_39 - y5_50 - y17_52 - y36_65 - y17_61 - y58_62 - y21_22 - y40_44 - y42_63 - y6_51 - y10_12 - y10_21 - y2_17 - y54_55 - y10_30 - y2_26 - y25_28 - y12_58 - y23_58 - y32_36 - y4_63 - y14_18 - y32_54 - y13_50 - y13_59 - y24_59 - y16_64 - y17_29 - y5_36 - y17_38 - y28_38 - y6_10 - y9_43 - y17_56 - y28_56 - y50_53 - y29_30 - y27_60 - y6_37 - y42_58 - y8_65 - y30_65 - y39_52 - y31_48 - y39_61 - y12_44 - y62_63 - y20_57 - y31_57 - y54_59 - y12_53 - y23_62 - y13_27 - y51_53 - y13_36 - y43_49 - y16_32 - y43_58 - y1_52 - y35_54 - y16_50 - y1_61 - y35_63 - y9_11 - y17_24 - y46_60 - y28_33 - y9_29 - y17_42 - y28_42 - y9_38 - y9_47 - y5_58 - y58_61 - y27_55 - y8_51 - y42_53 - y42_62 - y0_65 - y39_47 - y2_7 - y20_52 - y12_48 - y31_61 - y4_44 - y4_53 - y1_29 - y4_62 - y13_40 - y24_40 - y43_53 - y16_36 - y24_49 - y35_49 - y16_45 - y5_17 - y1_65 - y17_19 - y7_63 - y6_9 - y27_50 - y19_46 - y8_55 - y8_64 - y19_64 - y23_25 - y39_51 - y12_34 - y4_30 - y31_56 - y12_52 - y23_52 - y31_65 - y1_24 - y53_62 - y4_57 - y34_58 - y24_35 - y13_44 - y35_44 - y1_51 - y57_59 - y9_19 - y7_58 - y8_32 - y19_32 - y27_45 - y8_41 - y8_59 - y31_33 - y0_64 - y23_47 - y23_56 - y13_21 - y16_17 - y45_53 - y4_61 - y16_26 - y45_62 - y37_58 - y9_14 - y49_50 - y46_63 - y57_63 - y38_59 - y49_59 - y18_53 - y8_36 - y19_36 - y27_49 - y0_32 - y11_32 - y19_45 - y30_36 - y50_51 - y19_54 - y11_50 - y8_63 - y19_63 - y4_11 - y11_59 - y23_24 - y39_41 - y23_42 - y34_39 - y1_14 - y37_44 - y22_55 - y1_32 - y3_51 - y22_64 - y3_60 - y46_49 - y26_43 - y46_58 - y57_58 - y15_61 - y26_61 - y49_63 - y8_22 - y63_65 - y19_40 - y30_40 - y30_49 - y0_45 - y11_45 - y30_58 - y20_23 - y41_46 - y0_54 - y52_55 - y4_15 - y23_28 - y41_64 - y52_64 - y12_37 - y2_63 - y25_65 - y37_39 - y3_46 - y14_46 - y37_48 - y45_61 - y14_64 - y7_34 - y26_56 - y26_65 - y11_13 - y7_61 - y27_39 - y0_22 - y29_58 - y30_35 - y11_31 - y0_40 - y4_19 - y33_55 - y44_55 - y4_28 - y33_64 - y2_58 - y3_32 - y22_45 - y34_47 - y3_41 - y14_41 - y3_50 - y22_63 - y14_59 - y15_24 - y18_20 - y26_33 - y18_29 - y15_42 - y26_42 - y7_47 - y19_21 - y40_62 - y41_45 - y52_54 - y4_14 - y10_48 - y25_46 - y10_57 - y2_53 - y2_62 - y14_27 - y25_64 - y3_36 - y14_36 - y7_15 - y55_64 - y18_33 - y17_65 - y0_3 - y29_39 - y48_52 - y0_12 - y19_25 - y21_44 - y40_57 - y6_64 - y44_45 - y22_35 - y3_40 - y15_23 - y7_19 - y15_32 - y36_64 - y17_60 - y9_56 - y29_34 - y8_11 - y0_7 - y29_43 - y6_50 - y11_16 - y29_52 - y48_65 - y10_38 - y33_49 - y3_8 - y10_56 - y2_52 - y3_17 - y22_30 - y2_61 - y14_26 - y36_41 - y7_23 - y9_42 - y36_59 - y5_62 - y6_27 - y17_64 - y28_64 - y21_25 - y0_2 - y29_38 - y29_56 - y21_61 - y2_20 - y2_29 - y25_31 - y2_38 - y10_51 - y2_47 - y22_25 - y2_56 - y32_57 - y43_57 - y35_53 - y14_30 - y13_62 - y5_48 - y17_50 - y28_50 - y47_63 - y9_64 - y21_29 - y50_65 - y40_51 - y21_47 - y20_60 - y54_62 - y32_43 - y51_56 - y35_39 - y14_16 - y43_52 - y13_48 - y24_48 - y32_61 - y35_48 - y43_61 - y24_57 - y16_62 - y36_40 - y9_23 - y28_45 - y6_8 - y17_54 - y5_61 - y58_64 - y21_24 - y21_42 - y10_14 - y31_55 - y2_28 - y2_37 - y24_34 - y3_11 - y43_47 - y51_60 - y32_56 - y35_52 - y43_65 - y16_48 - y5_38 - y17_40 - y28_40 - y9_45 - y5_56 - y50_55 - y42_51 - y50_64 - y2_14 - y62_65 - y2_23 - y31_59 - y13_29 - y32_42 - y16_25 - y1_36 - y35_38 - y43_51 - y16_34 - y1_54 - y24_56 - y16_61 - y17_26 - y46_62 - y36_39 - y17_35 - y9_31 - y15_65 - y28_44 - y6_7 - y9_40 - y58_63 - y8_53 - y19_53 - y8_62 - y20_27 - y0_58 - y39_40 - y20_36 - y10_13 - y23_32 - y20_45 - y13_15 - y23_59 - y53_60 - y4_55 - y1_31 - y24_33 - y32_46 - y43_46 - y13_42 - y24_51 - y46_48 - y5_19 - y46_57 - y38_53 - y5_28 - y28_30 - y26_60 - y38_62 - y27_43 - y6_20 - y19_39 - y30_39 - y27_52 - y8_48 - y11_44 - y8_57 - y11_53 - y39_44 - y23_27 - y1_8 - y20_58 - y31_58 - y4_50 - y1_26 - y13_28 - y4_59 - y34_60 - y56_60 - y16_42 - y9_12 - y15_46 - y46_61 - y26_55 - y18_60 - y8_25 - y8_43 - y30_52 - y11_48 - y19_61 - y30_61 - y20_35 - y4_18 - y23_49 - y34_46 - y1_21 - y4_54 - y22_62 - y34_64 - y1_39 - y14_58 - y26_41 - y38_43 - y46_56 - y57_65 - y18_46 - y49_61 - y18_55 - y27_42 - y19_38 - y30_38 - y11_34 - y41_53 - y12_26 - y31_39 - y25_63 - y4_40 - y53_54 - y22_48 - y45_50 - y53_63 - y22_57 - y34_59 - y14_62 - y26_27 - y37_64 - y15_36 - y26_36 - y15_54 - y26_54 - y7_50 - y8_15 - y0_11 - y19_24 - y27_37 - y27_46 - y11_29 - y8_42 - y19_42 - y30_42 - y0_38 - y30_51 - y60_61 - y41_57 - y33_53 - y44_53 - y25_49 - y4_26 - y1_2 - y34_36 - y1_11 - y2_65 - y34_45 - y53_58 - y3_39 - y22_52 - y3_48 - y14_48 - y22_61 - y45_63 - y56_63 - y7_18 - y15_31 - y7_27 - y18_27 - y15_40 - y26_40 - y7_36 - y7_45 - y8_10 - y15_58 - y0_6 - y8_19 - y11_15 - y18_63 - y19_28 - y0_24 - y19_37 - y21_56 - y11_33 - y0_42 - y11_42 - y33_39 - y12_16 - y33_57 - y2_51 - y10_64 - y22_29 - y1_6 - y45_49 - y14_43 - y22_56 - y45_58 - y3_52 - y7_13 - y14_61 - y15_26 - y15_44 - y7_49 - y29_55 - y30_32 - y0_28 - y6_62 - y29_64 - y10_41 - y4_16 - y33_52 - y41_65 - y2_46 - y44_52 - y22_24 - y25_57 - y22_33 - y34_35 - y3_38 - y3_47
 Subject to
C1: x0+x1 <=1 
C2: x0+x2-y0_2 <=1 
C3: x0+x3-y0_3 <=1 
C4: x0+x4 <=1 
C5: x0+x6-y0_6 <=1 
C6: x0+x7-y0_7 <=1 
C7: x0+x8 <=1 
C8: x0+x9-y0_9 <=1 
C9: x0+x11-y0_11 <=1 
C10: x0+x12-y0_12 <=1 
C11: x0+x13 <=1 
C12: x0+x15 <=1 
C13: x0+x17 <=1 
C14: x0+x20 <=1 
C15: x0+x22-y0_22 <=1 
C16: x0+x23 <=1 
C17: x0+x24-y0_24 <=1 
C18: x0+x27 <=1 
C19: x0+x28-y0_28 <=1 
C20: x0+x32-y0_32 <=1 
C21: x0+x33 <=1 
C22: x0+x34 <=1 
C23: x0+x35 <=1 
C24: x0+x37 <=1 
C25: x0+x38-y0_38 <=1 
C26: x0+x39 <=1 
C27: x0+x40-y0_40 <=1 
C28: x0+x41 <=1 
C29: x0+x42-y0_42 <=1 
C30: x0+x45-y0_45 <=1 
C31: x0+x47 <=1 
C32: x0+x48 <=1 
C33: x0+x49 <=1 
C34: x0+x54-y0_54 <=1 
C35: x0+x55 <=1 
C36: x0+x56 <=1 
C37: x0+x58-y0_58 <=1 
C38: x0+x60 <=1 
C39: x0+x64-y0_64 <=1 
C40: x0+x65-y0_65 <=1 
C41: x1+x2-y1_2 <=1 
C42: x1+x3 <=1 
C43: x1+x4 <=1 
C44: x1+x5 <=1 
C45: x1+x6-y1_6 <=1 
C46: x1+x7 <=1 
C47: x1+x8-y1_8 <=1 
C48: x1+x9 <=1 
C49: x1+x10 <=1 
C50: x1+x11-y1_11 <=1 
C51: x1+x14-y1_14 <=1 
C52: x1+x17 <=1 
C53: x1+x20 <=1 
C54: x1+x21-y1_21 <=1 
C55: x1+x22 <=1 
C56: x1+x23 <=1 
C57: x1+x24-y1_24 <=1 
C58: x1+x26-y1_26 <=1 
C59: x1+x29-y1_29 <=1 
C60: x1+x30 <=1 
C61: x1+x31-y1_31 <=1 
C62: x1+x32-y1_32 <=1 
C63: x1+x33 <=1 
C64: x1+x34 <=1 
C65: x1+x36-y1_36 <=1 
C66: x1+x39-y1_39 <=1 
C67: x1+x40 <=1 
C68: x1+x45 <=1 
C69: x1+x46 <=1 
C70: x1+x48 <=1 
C71: x1+x51-y1_51 <=1 
C72: x1+x52-y1_52 <=1 
C73: x1+x53-y1_53 <=1 
C74: x1+x54-y1_54 <=1 
C75: x1+x55 <=1 
C76: x1+x61-y1_61 <=1 
C77: x1+x64 <=1 
C78: x1+x65-y1_65 <=1 
C79: x2+x4 <=1 
C80: x2+x6 <=1 
C81: x2+x7-y2_7 <=1 
C82: x2+x13 <=1 
C83: x2+x14-y2_14 <=1 
C84: x2+x16 <=1 
C85: x2+x17-y2_17 <=1 
C86: x2+x18 <=1 
C87: x2+x19 <=1 
C88: x2+x20-y2_20 <=1 
C89: x2+x21 <=1 
C90: x2+x22 <=1 
C91: x2+x23-y2_23 <=1 
C92: x2+x26-y2_26 <=1 
C93: x2+x27-y2_27 <=1 
C94: x2+x28-y2_28 <=1 
C95: x2+x29-y2_29 <=1 
C96: x2+x30 <=1 
C97: x2+x31 <=1 
C98: x2+x32-y2_32 <=1 
C99: x2+x35 <=1 
C100: x2+x36-y2_36 <=1 
C101: x2+x37-y2_37 <=1 
C102: x2+x38-y2_38 <=1 
C103: x2+x46-y2_46 <=1 
C104: x2+x47-y2_47 <=1 
C105: x2+x48 <=1 
C106: x2+x50 <=1 
C107: x2+x51-y2_51 <=1 
C108: x2+x52-y2_52 <=1 
C109: x2+x53-y2_53 <=1 
C110: x2+x54 <=1 
C111: x2+x56-y2_56 <=1 
C112: x2+x58-y2_58 <=1 
C113: x2+x59-y2_59 <=1 
C114: x2+x61-y2_61 <=1 
C115: x2+x62-y2_62 <=1 
C116: x2+x63-y2_63 <=1 
C117: x2+x64 <=1 
C118: x2+x65-y2_65 <=1 
C119: x3+x4 <=1 
C120: x3+x6 <=1 
C121: x3+x7 <=1 
C122: x3+x8-y3_8 <=1 
C123: x3+x9 <=1 
C124: x3+x11-y3_11 <=1 
C125: x3+x14 <=1 
C126: x3+x17-y3_17 <=1 
C127: x3+x19-y3_19 <=1 
C128: x3+x23-y3_23 <=1 
C129: x3+x27 <=1 
C130: x3+x28-y3_28 <=1 
C131: x3+x30 <=1 
C132: x3+x31 <=1 
C133: x3+x32-y3_32 <=1 
C134: x3+x33-y3_33 <=1 
C135: x3+x36-y3_36 <=1 
C136: x3+x38-y3_38 <=1 
C137: x3+x39-y3_39 <=1 
C138: x3+x40-y3_40 <=1 
C139: x3+x41-y3_41 <=1 
C140: x3+x42-y3_42 <=1 
C141: x3+x46-y3_46 <=1 
C142: x3+x47-y3_47 <=1 
C143: x3+x48-y3_48 <=1 
C144: x3+x49 <=1 
C145: x3+x50-y3_50 <=1 
C146: x3+x51-y3_51 <=1 
C147: x3+x52-y3_52 <=1 
C148: x3+x53 <=1 
C149: x3+x54 <=1 
C150: x3+x57 <=1 
C151: x3+x58 <=1 
C152: x3+x60-y3_60 <=1 
C153: x3+x62 <=1 
C154: x3+x63 <=1 
C155: x4+x9 <=1 
C156: x4+x10 <=1 
C157: x4+x11-y4_11 <=1 
C158: x4+x14-y4_14 <=1 
C159: x4+x15-y4_15 <=1 
C160: x4+x16-y4_16 <=1 
C161: x4+x17 <=1 
C162: x4+x18-y4_18 <=1 
C163: x4+x19-y4_19 <=1 
C164: x4+x20 <=1 
C165: x4+x21 <=1 
C166: x4+x26-y4_26 <=1 
C167: x4+x27 <=1 
C168: x4+x28-y4_28 <=1 
C169: x4+x29 <=1 
C170: x4+x30-y4_30 <=1 
C171: x4+x31 <=1 
C172: x4+x34 <=1 
C173: x4+x35 <=1 
C174: x4+x39 <=1 
C175: x4+x40-y4_40 <=1 
C176: x4+x43 <=1 
C177: x4+x44-y4_44 <=1 
C178: x4+x45 <=1 
C179: x4+x46 <=1 
C180: x4+x47 <=1 
C181: x4+x48 <=1 
C182: x4+x50-y4_50 <=1 
C183: x4+x51 <=1 
C184: x4+x53-y4_53 <=1 
C185: x4+x54-y4_54 <=1 
C186: x4+x55-y4_55 <=1 
C187: x4+x56 <=1 
C188: x4+x57-y4_57 <=1 
C189: x4+x59-y4_59 <=1 
C190: x4+x61-y4_61 <=1 
C191: x4+x62-y4_62 <=1 
C192: x4+x63-y4_63 <=1 
C193: x5+x6 <=1 
C194: x5+x8 <=1 
C195: x5+x9 <=1 
C196: x5+x10 <=1 
C197: x5+x13 <=1 
C198: x5+x14 <=1 
C199: x5+x17-y5_17 <=1 
C200: x5+x18 <=1 
C201: x5+x19-y5_19 <=1 
C202: x5+x21 <=1 
C203: x5+x22 <=1 
C204: x5+x24 <=1 
C205: x5+x25 <=1 
C206: x5+x27 <=1 
C207: x5+x28-y5_28 <=1 
C208: x5+x29 <=1 
C209: x5+x30 <=1 
C210: x5+x36-y5_36 <=1 
C211: x5+x37 <=1 
C212: x5+x38-y5_38 <=1 
C213: x5+x40 <=1 
C214: x5+x41 <=1 
C215: x5+x44 <=1 
C216: x5+x45 <=1 
C217: x5+x46 <=1 
C218: x5+x47 <=1 
C219: x5+x48-y5_48 <=1 
C220: x5+x49 <=1 
C221: x5+x50-y5_50 <=1 
C222: x5+x53 <=1 
C223: x5+x55 <=1 
C224: x5+x56-y5_56 <=1 
C225: x5+x57 <=1 
C226: x5+x58-y5_58 <=1 
C227: x5+x59 <=1 
C228: x5+x60-y5_60 <=1 
C229: x5+x61-y5_61 <=1 
C230: x5+x62-y5_62 <=1 
C231: x5+x63 <=1 
C232: x5+x64-y5_64 <=1 
C233: x5+x65-y5_65 <=1 
C234: x6+x7-y6_7 <=1 
C235: x6+x8-y6_8 <=1 
C236: x6+x9-y6_9 <=1 
C237: x6+x10-y6_10 <=1 
C238: x6+x13 <=1 
C239: x6+x14 <=1 
C240: x6+x15 <=1 
C241: x6+x16 <=1 
C242: x6+x17 <=1 
C243: x6+x18 <=1 
C244: x6+x19 <=1 
C245: x6+x20-y6_20 <=1 
C246: x6+x23 <=1 
C247: x6+x27-y6_27 <=1 
C248: x6+x28 <=1 
C249: x6+x29 <=1 
C250: x6+x30 <=1 
C251: x6+x31 <=1 
C252: x6+x32 <=1 
C253: x6+x34 <=1 
C254: x6+x36 <=1 
C255: x6+x37-y6_37 <=1 
C256: x6+x38 <=1 
C257: x6+x40 <=1 
C258: x6+x41 <=1 
C259: x6+x42 <=1 
C260: x6+x44 <=1 
C261: x6+x47-y6_47 <=1 
C262: x6+x49 <=1 
C263: x6+x50-y6_50 <=1 
C264: x6+x51-y6_51 <=1 
C265: x6+x52-y6_52 <=1 
C266: x6+x53 <=1 
C267: x6+x54 <=1 
C268: x6+x55 <=1 
C269: x6+x57 <=1 
C270: x6+x58 <=1 
C271: x6+x60 <=1 
C272: x6+x61 <=1 
C273: x6+x62-y6_62 <=1 
C274: x6+x63 <=1 
C275: x6+x64-y6_64 <=1 
C276: x7+x8 <=1 
C277: x7+x11 <=1 
C278: x7+x12 <=1 
C279: x7+x13-y7_13 <=1 
C280: x7+x15-y7_15 <=1 
C281: x7+x17-y7_17 <=1 
C282: x7+x18-y7_18 <=1 
C283: x7+x19-y7_19 <=1 
C284: x7+x22 <=1 
C285: x7+x23-y7_23 <=1 
C286: x7+x25 <=1 
C287: x7+x26 <=1 
C288: x7+x27-y7_27 <=1 
C289: x7+x28 <=1 
C290: x7+x31 <=1 
C291: x7+x32 <=1 
C292: x7+x33 <=1 
C293: x7+x34-y7_34 <=1 
C294: x7+x36-y7_36 <=1 
C295: x7+x37 <=1 
C296: x7+x38 <=1 
C297: x7+x41 <=1 
C298: x7+x44 <=1 
C299: x7+x45-y7_45 <=1 
C300: x7+x47-y7_47 <=1 
C301: x7+x48 <=1 
C302: x7+x49-y7_49 <=1 
C303: x7+x50-y7_50 <=1 
C304: x7+x54 <=1 
C305: x7+x55 <=1 
C306: x7+x56 <=1 
C307: x7+x57 <=1 
C308: x7+x58-y7_58 <=1 
C309: x7+x61-y7_61 <=1 
C310: x7+x63-y7_63 <=1 
C311: x7+x64 <=1 
C312: x7+x65 <=1 
C313: x8+x9 <=1 
C314: x8+x10-y8_10 <=1 
C315: x8+x11-y8_11 <=1 
C316: x8+x12 <=1 
C317: x8+x13 <=1 
C318: x8+x14 <=1 
C319: x8+x15-y8_15 <=1 
C320: x8+x18 <=1 
C321: x8+x19-y8_19 <=1 
C322: x8+x20 <=1 
C323: x8+x21 <=1 
C324: x8+x22-y8_22 <=1 
C325: x8+x23 <=1 
C326: x8+x24 <=1 
C327: x8+x25-y8_25 <=1 
C328: x8+x27 <=1 
C329: x8+x28 <=1 
C330: x8+x29 <=1 
C331: x8+x31 <=1 
C332: x8+x32-y8_32 <=1 
C333: x8+x35 <=1 
C334: x8+x36-y8_36 <=1 
C335: x8+x40 <=1 
C336: x8+x41-y8_41 <=1 
C337: x8+x42-y8_42 <=1 
C338: x8+x43-y8_43 <=1 
C339: x8+x44 <=1 
C340: x8+x46 <=1 
C341: x8+x48-y8_48 <=1 
C342: x8+x49 <=1 
C343: x8+x51-y8_51 <=1 
C344: x8+x52 <=1 
C345: x8+x53-y8_53 <=1 
C346: x8+x54 <=1 
C347: x8+x55-y8_55 <=1 
C348: x8+x57-y8_57 <=1 
C349: x8+x58 <=1 
C350: x8+x59-y8_59 <=1 
C351: x8+x61 <=1 
C352: x8+x62-y8_62 <=1 
C353: x8+x63-y8_63 <=1 
C354: x8+x64-y8_64 <=1 
C355: x8+x65-y8_65 <=1 
C356: x9+x10 <=1 
C357: x9+x11-y9_11 <=1 
C358: x9+x12-y9_12 <=1 
C359: x9+x14-y9_14 <=1 
C360: x9+x15 <=1 
C361: x9+x17 <=1 
C362: x9+x19-y9_19 <=1 
C363: x9+x20 <=1 
C364: x9+x22 <=1 
C365: x9+x23-y9_23 <=1 
C366: x9+x24 <=1 
C367: x9+x25 <=1 
C368: x9+x28 <=1 
C369: x9+x29-y9_29 <=1 
C370: x9+x30-y9_30 <=1 
C371: x9+x31-y9_31 <=1 
C372: x9+x33 <=1 
C373: x9+x34 <=1 
C374: x9+x35 <=1 
C375: x9+x38-y9_38 <=1 
C376: x9+x39-y9_39 <=1 
C377: x9+x40-y9_40 <=1 
C378: x9+x42-y9_42 <=1 
C379: x9+x43-y9_43 <=1 
C380: x9+x44 <=1 
C381: x9+x45-y9_45 <=1 
C382: x9+x47-y9_47 <=1 
C383: x9+x49-y9_49 <=1 
C384: x9+x50 <=1 
C385: x9+x51 <=1 
C386: x9+x54 <=1 
C387: x9+x56-y9_56 <=1 
C388: x9+x57 <=1 
C389: x9+x60 <=1 
C390: x9+x61 <=1 
C391: x9+x62-y9_62 <=1 
C392: x9+x63-y9_63 <=1 
C393: x9+x64-y9_64 <=1 
C394: x9+x65 <=1 
C395: x10+x12-y10_12 <=1 
C396: x10+x13-y10_13 <=1 
C397: x10+x14-y10_14 <=1 
C398: x10+x16 <=1 
C399: x10+x17 <=1 
C400: x10+x18 <=1 
C401: x10+x19 <=1 
C402: x10+x21-y10_21 <=1 
C403: x10+x24 <=1 
C404: x10+x26 <=1 
C405: x10+x29 <=1 
C406: x10+x30-y10_30 <=1 
C407: x10+x31-y10_31 <=1 
C408: x10+x33 <=1 
C409: x10+x36 <=1 
C410: x10+x38-y10_38 <=1 
C411: x10+x39 <=1 
C412: x10+x40-y10_40 <=1 
C413: x10+x41-y10_41 <=1 
C414: x10+x42 <=1 
C415: x10+x44-y10_44 <=1 
C416: x10+x45-y10_45 <=1 
C417: x10+x48-y10_48 <=1 
C418: x10+x49 <=1 
C419: x10+x50 <=1 
C420: x10+x51-y10_51 <=1 
C421: x10+x53 <=1 
C422: x10+x54 <=1 
C423: x10+x55 <=1 
C424: x10+x56-y10_56 <=1 
C425: x10+x57-y10_57 <=1 
C426: x10+x61 <=1 
C427: x10+x63-y10_63 <=1 
C428: x10+x64-y10_64 <=1 
C429: x11+x13-y11_13 <=1 
C430: x11+x14 <=1 
C431: x11+x15-y11_15 <=1 
C432: x11+x16-y11_16 <=1 
C433: x11+x17 <=1 
C434: x11+x18 <=1 
C435: x11+x19 <=1 
C436: x11+x20 <=1 
C437: x11+x21 <=1 
C438: x11+x22 <=1 
C439: x11+x24 <=1 
C440: x11+x25 <=1 
C441: x11+x26 <=1 
C442: x11+x27 <=1 
C443: x11+x29-y11_29 <=1 
C444: x11+x31-y11_31 <=1 
C445: x11+x32-y11_32 <=1 
C446: x11+x33-y11_33 <=1 
C447: x11+x34-y11_34 <=1 
C448: x11+x35 <=1 
C449: x11+x37 <=1 
C450: x11+x39 <=1 
C451: x11+x42-y11_42 <=1 
C452: x11+x44-y11_44 <=1 
C453: x11+x45-y11_45 <=1 
C454: x11+x46 <=1 
C455: x11+x47 <=1 
C456: x11+x48-y11_48 <=1 
C457: x11+x50-y11_50 <=1 
C458: x11+x53-y11_53 <=1 
C459: x11+x54 <=1 
C460: x11+x57 <=1 
C461: x11+x58 <=1 
C462: x11+x59-y11_59 <=1 
C463: x11+x60 <=1 
C464: x11+x61 <=1 
C465: x12+x15 <=1 
C466: x12+x16-y12_16 <=1 
C467: x12+x18 <=1 
C468: x12+x26-y12_26 <=1 
C469: x12+x28 <=1 
C470: x12+x33 <=1 
C471: x12+x34-y12_34 <=1 
C472: x12+x35 <=1 
C473: x12+x37-y12_37 <=1 
C474: x12+x38 <=1 
C475: x12+x42 <=1 
C476: x12+x43 <=1 
C477: x12+x44-y12_44 <=1 
C478: x12+x45 <=1 
C479: x12+x47 <=1 
C480: x12+x48-y12_48 <=1 
C481: x12+x50 <=1 
C482: x12+x52-y12_52 <=1 
C483: x12+x53-y12_53 <=1 
C484: x12+x56 <=1 
C485: x12+x57 <=1 
C486: x12+x58-y12_58 <=1 
C487: x12+x59 <=1 
C488: x12+x61 <=1 
C489: x12+x65 <=1 
C490: x13+x15-y13_15 <=1 
C491: x13+x17 <=1 
C492: x13+x19 <=1 
C493: x13+x21-y13_21 <=1 
C494: x13+x27-y13_27 <=1 
C495: x13+x28-y13_28 <=1 
C496: x13+x29-y13_29 <=1 
C497: x13+x30 <=1 
C498: x13+x34 <=1 
C499: x13+x35 <=1 
C500: x13+x36-y13_36 <=1 
C501: x13+x39 <=1 
C502: x13+x40-y13_40 <=1 
C503: x13+x41 <=1 
C504: x13+x42-y13_42 <=1 
C505: x13+x44-y13_44 <=1 
C506: x13+x46 <=1 
C507: x13+x47 <=1 
C508: x13+x48-y13_48 <=1 
C509: x13+x50-y13_50 <=1 
C510: x13+x51 <=1 
C511: x13+x54 <=1 
C512: x13+x56 <=1 
C513: x13+x58 <=1 
C514: x13+x59-y13_59 <=1 
C515: x13+x62-y13_62 <=1 
C516: x13+x63 <=1 
C517: x13+x65 <=1 
C518: x14+x15 <=1 
C519: x14+x16-y14_16 <=1 
C520: x14+x18-y14_18 <=1 
C521: x14+x20 <=1 
C522: x14+x22 <=1 
C523: x14+x26-y14_26 <=1 
C524: x14+x27-y14_27 <=1 
C525: x14+x29 <=1 
C526: x14+x30-y14_30 <=1 
C527: x14+x32-y14_32 <=1 
C528: x14+x36-y14_36 <=1 
C529: x14+x40 <=1 
C530: x14+x41-y14_41 <=1 
C531: x14+x43-y14_43 <=1 
C532: x14+x46-y14_46 <=1 
C533: x14+x47 <=1 
C534: x14+x48-y14_48 <=1 
C535: x14+x49 <=1 
C536: x14+x50 <=1 
C537: x14+x51 <=1 
C538: x14+x55 <=1 
C539: x14+x56 <=1 
C540: x14+x57 <=1 
C541: x14+x58-y14_58 <=1 
C542: x14+x59-y14_59 <=1 
C543: x14+x60 <=1 
C544: x14+x61-y14_61 <=1 
C545: x14+x62-y14_62 <=1 
C546: x14+x64-y14_64 <=1 
C547: x15+x16 <=1 
C548: x15+x17 <=1 
C549: x15+x19 <=1 
C550: x15+x20 <=1 
C551: x15+x21 <=1 
C552: x15+x23-y15_23 <=1 
C553: x15+x24-y15_24 <=1 
C554: x15+x26-y15_26 <=1 
C555: x15+x27 <=1 
C556: x15+x30-y15_30 <=1 
C557: x15+x31-y15_31 <=1 
C558: x15+x32-y15_32 <=1 
C559: x15+x33 <=1 
C560: x15+x36-y15_36 <=1 
C561: x15+x39-y15_39 <=1 
C562: x15+x40-y15_40 <=1 
C563: x15+x41 <=1 
C564: x15+x42-y15_42 <=1 
C565: x15+x43 <=1 
C566: x15+x44-y15_44 <=1 
C567: x15+x45 <=1 
C568: x15+x46-y15_46 <=1 
C569: x15+x52 <=1 
C570: x15+x54-y15_54 <=1 
C571: x15+x56 <=1 
C572: x15+x58-y15_58 <=1 
C573: x15+x59 <=1 
C574: x15+x60 <=1 
C575: x15+x61-y15_61 <=1 
C576: x15+x62 <=1 
C577: x15+x65-y15_65 <=1 
C578: x16+x17-y16_17 <=1 
C579: x16+x18 <=1 
C580: x16+x21 <=1 
C581: x16+x22 <=1 
C582: x16+x23 <=1 
C583: x16+x25-y16_25 <=1 
C584: x16+x26-y16_26 <=1 
C585: x16+x28 <=1 
C586: x16+x29 <=1 
C587: x16+x32-y16_32 <=1 
C588: x16+x34-y16_34 <=1 
C589: x16+x35 <=1 
C590: x16+x36-y16_36 <=1 
C591: x16+x38 <=1 
C592: x16+x40 <=1 
C593: x16+x41 <=1 
C594: x16+x42-y16_42 <=1 
C595: x16+x43 <=1 
C596: x16+x44 <=1 
C597: x16+x45-y16_45 <=1 
C598: x16+x46 <=1 
C599: x16+x47 <=1 
C600: x16+x48-y16_48 <=1 
C601: x16+x50-y16_50 <=1 
C602: x16+x51 <=1 
C603: x16+x52 <=1 
C604: x16+x54 <=1 
C605: x16+x57 <=1 
C606: x16+x58 <=1 
C607: x16+x60 <=1 
C608: x16+x61-y16_61 <=1 
C609: x16+x62-y16_62 <=1 
C610: x16+x63 <=1 
C611: x16+x64-y16_64 <=1 
C612: x17+x19-y17_19 <=1 
C613: x17+x20 <=1 
C614: x17+x22 <=1 
C615: x17+x24-y17_24 <=1 
C616: x17+x26-y17_26 <=1 
C617: x17+x29-y17_29 <=1 
C618: x17+x35-y17_35 <=1 
C619: x17+x36 <=1 
C620: x17+x37 <=1 
C621: x17+x38-y17_38 <=1 
C622: x17+x39 <=1 
C623: x17+x40-y17_40 <=1 
C624: x17+x41 <=1 
C625: x17+x42-y17_42 <=1 
C626: x17+x43 <=1 
C627: x17+x44 <=1 
C628: x17+x50-y17_50 <=1 
C629: x17+x51 <=1 
C630: x17+x52-y17_52 <=1 
C631: x17+x53 <=1 
C632: x17+x54-y17_54 <=1 
C633: x17+x56-y17_56 <=1 
C634: x17+x57 <=1 
C635: x17+x59 <=1 
C636: x17+x60-y17_60 <=1 
C637: x17+x61-y17_61 <=1 
C638: x17+x62 <=1 
C639: x17+x64-y17_64 <=1 
C640: x17+x65-y17_65 <=1 
C641: x18+x19 <=1 
C642: x18+x20-y18_20 <=1 
C643: x18+x21 <=1 
C644: x18+x22 <=1 
C645: x18+x24 <=1 
C646: x18+x25 <=1 
C647: x18+x27-y18_27 <=1 
C648: x18+x28 <=1 
C649: x18+x29-y18_29 <=1 
C650: x18+x32 <=1 
C651: x18+x33-y18_33 <=1 
C652: x18+x34 <=1 
C653: x18+x35 <=1 
C654: x18+x39 <=1 
C655: x18+x41 <=1 
C656: x18+x44-y18_44 <=1 
C657: x18+x45 <=1 
C658: x18+x46-y18_46 <=1 
C659: x18+x47 <=1 
C660: x18+x48 <=1 
C661: x18+x49 <=1 
C662: x18+x51 <=1 
C663: x18+x53-y18_53 <=1 
C664: x18+x54 <=1 
C665: x18+x55-y18_55 <=1 
C666: x18+x59 <=1 
C667: x18+x60-y18_60 <=1 
C668: x18+x62 <=1 
C669: x18+x63-y18_63 <=1 
C670: x18+x65 <=1 
C671: x19+x20 <=1 
C672: x19+x21-y19_21 <=1 
C673: x19+x22 <=1 
C674: x19+x23 <=1 
C675: x19+x24-y19_24 <=1 
C676: x19+x25-y19_25 <=1 
C677: x19+x28-y19_28 <=1 
C678: x19+x31 <=1 
C679: x19+x32-y19_32 <=1 
C680: x19+x36-y19_36 <=1 
C681: x19+x37-y19_37 <=1 
C682: x19+x38-y19_38 <=1 
C683: x19+x39-y19_39 <=1 
C684: x19+x40-y19_40 <=1 
C685: x19+x42-y19_42 <=1 
C686: x19+x43 <=1 
C687: x19+x44 <=1 
C688: x19+x45-y19_45 <=1 
C689: x19+x46-y19_46 <=1 
C690: x19+x47 <=1 
C691: x19+x49 <=1 
C692: x19+x53-y19_53 <=1 
C693: x19+x54-y19_54 <=1 
C694: x19+x57 <=1 
C695: x19+x58 <=1 
C696: x19+x59 <=1 
C697: x19+x61-y19_61 <=1 
C698: x19+x63-y19_63 <=1 
C699: x19+x64-y19_64 <=1 
C700: x20+x23-y20_23 <=1 
C701: x20+x27-y20_27 <=1 
C702: x20+x29 <=1 
C703: x20+x31 <=1 
C704: x20+x33 <=1 
C705: x20+x34 <=1 
C706: x20+x35-y20_35 <=1 
C707: x20+x36-y20_36 <=1 
C708: x20+x38 <=1 
C709: x20+x40 <=1 
C710: x20+x41 <=1 
C711: x20+x42 <=1 
C712: x20+x43 <=1 
C713: x20+x45-y20_45 <=1 
C714: x20+x46 <=1 
C715: x20+x49 <=1 
C716: x20+x50 <=1 
C717: x20+x52-y20_52 <=1 
C718: x20+x53 <=1 
C719: x20+x56 <=1 
C720: x20+x57-y20_57 <=1 
C721: x20+x58-y20_58 <=1 
C722: x20+x60-y20_60 <=1 
C723: x20+x64 <=1 
C724: x21+x22-y21_22 <=1 
C725: x21+x24-y21_24 <=1 
C726: x21+x25-y21_25 <=1 
C727: x21+x28 <=1 
C728: x21+x29-y21_29 <=1 
C729: x21+x30 <=1 
C730: x21+x35 <=1 
C731: x21+x36 <=1 
C732: x21+x40 <=1 
C733: x21+x42-y21_42 <=1 
C734: x21+x43 <=1 
C735: x21+x44-y21_44 <=1 
C736: x21+x46 <=1 
C737: x21+x47-y21_47 <=1 
C738: x21+x48 <=1 
C739: x21+x49 <=1 
C740: x21+x50-y21_50 <=1 
C741: x21+x54-y21_54 <=1 
C742: x21+x55-y21_55 <=1 
C743: x21+x56-y21_56 <=1 
C744: x21+x59 <=1 
C745: x21+x61-y21_61 <=1 
C746: x21+x62 <=1 
C747: x21+x63 <=1 
C748: x21+x64 <=1 
C749: x22+x23 <=1 
C750: x22+x24-y22_24 <=1 
C751: x22+x25-y22_25 <=1 
C752: x22+x27 <=1 
C753: x22+x28-y22_28 <=1 
C754: x22+x29-y22_29 <=1 
C755: x22+x30-y22_30 <=1 
C756: x22+x33-y22_33 <=1 
C757: x22+x35-y22_35 <=1 
C758: x22+x40 <=1 
C759: x22+x41 <=1 
C760: x22+x42 <=1 
C761: x22+x43 <=1 
C762: x22+x45-y22_45 <=1 
C763: x22+x46-y22_46 <=1 
C764: x22+x47 <=1 
C765: x22+x48-y22_48 <=1 
C766: x22+x49 <=1 
C767: x22+x52-y22_52 <=1 
C768: x22+x53 <=1 
C769: x22+x55-y22_55 <=1 
C770: x22+x56-y22_56 <=1 
C771: x22+x57-y22_57 <=1 
C772: x22+x59 <=1 
C773: x22+x61-y22_61 <=1 
C774: x22+x62-y22_62 <=1 
C775: x22+x63-y22_63 <=1 
C776: x22+x64-y22_64 <=1 
C777: x23+x24-y23_24 <=1 
C778: x23+x25-y23_25 <=1 
C779: x23+x26 <=1 
C780: x23+x27-y23_27 <=1 
C781: x23+x28-y23_28 <=1 
C782: x23+x32-y23_32 <=1 
C783: x23+x33 <=1 
C784: x23+x34 <=1 
C785: x23+x36 <=1 
C786: x23+x41 <=1 
C787: x23+x42-y23_42 <=1 
C788: x23+x43 <=1 
C789: x23+x44 <=1 
C790: x23+x46 <=1 
C791: x23+x47-y23_47 <=1 
C792: x23+x49-y23_49 <=1 
C793: x23+x50 <=1 
C794: x23+x52-y23_52 <=1 
C795: x23+x54 <=1 
C796: x23+x56-y23_56 <=1 
C797: x23+x58-y23_58 <=1 
C798: x23+x59-y23_59 <=1 
C799: x23+x61 <=1 
C800: x23+x62-y23_62 <=1 
C801: x23+x64 <=1 
C802: x24+x25 <=1 
C803: x24+x27 <=1 
C804: x24+x29 <=1 
C805: x24+x31 <=1 
C806: x24+x33-y24_33 <=1 
C807: x24+x34-y24_34 <=1 
C808: x24+x35-y24_35 <=1 
C809: x24+x36 <=1 
C810: x24+x37 <=1 
C811: x24+x39 <=1 
C812: x24+x40-y24_40 <=1 
C813: x24+x45 <=1 
C814: x24+x46 <=1 
C815: x24+x48-y24_48 <=1 
C816: x24+x49-y24_49 <=1 
C817: x24+x51-y24_51 <=1 
C818: x24+x52 <=1 
C819: x24+x54 <=1 
C820: x24+x55-y24_55 <=1 
C821: x24+x56-y24_56 <=1 
C822: x24+x57-y24_57 <=1 
C823: x24+x58 <=1 
C824: x24+x59-y24_59 <=1 
C825: x24+x64 <=1 
C826: x25+x28-y25_28 <=1 
C827: x25+x29 <=1 
C828: x25+x30 <=1 
C829: x25+x31-y25_31 <=1 
C830: x25+x32 <=1 
C831: x25+x33-y25_33 <=1 
C832: x25+x40 <=1 
C833: x25+x42 <=1 
C834: x25+x43 <=1 
C835: x25+x46-y25_46 <=1 
C836: x25+x47-y25_47 <=1 
C837: x25+x48 <=1 
C838: x25+x49-y25_49 <=1 
C839: x25+x57-y25_57 <=1 
C840: x25+x58 <=1 
C841: x25+x61 <=1 
C842: x25+x62 <=1 
C843: x25+x63-y25_63 <=1 
C844: x25+x64-y25_64 <=1 
C845: x25+x65-y25_65 <=1 
C846: x26+x27-y26_27 <=1 
C847: x26+x30-y26_30 <=1 
C848: x26+x31 <=1 
C849: x26+x32 <=1 
C850: x26+x33-y26_33 <=1 
C851: x26+x34 <=1 
C852: x26+x36-y26_36 <=1 
C853: x26+x37 <=1 
C854: x26+x39 <=1 
C855: x26+x40-y26_40 <=1 
C856: x26+x41-y26_41 <=1 
C857: x26+x42-y26_42 <=1 
C858: x26+x43-y26_43 <=1 
C859: x26+x45 <=1 
C860: x26+x46 <=1 
C861: x26+x47 <=1 
C862: x26+x48 <=1 
C863: x26+x50 <=1 
C864: x26+x51 <=1 
C865: x26+x52 <=1 
C866: x26+x54-y26_54 <=1 
C867: x26+x55-y26_55 <=1 
C868: x26+x56-y26_56 <=1 
C869: x26+x57 <=1 
C870: x26+x59 <=1 
C871: x26+x60-y26_60 <=1 
C872: x26+x61-y26_61 <=1 
C873: x26+x65-y26_65 <=1 
C874: x27+x28 <=1 
C875: x27+x30 <=1 
C876: x27+x31 <=1 
C877: x27+x34 <=1 
C878: x27+x37-y27_37 <=1 
C879: x27+x39-y27_39 <=1 
C880: x27+x42-y27_42 <=1 
C881: x27+x43-y27_43 <=1 
C882: x27+x45-y27_45 <=1 
C883: x27+x46-y27_46 <=1 
C884: x27+x48 <=1 
C885: x27+x49-y27_49 <=1 
C886: x27+x50-y27_50 <=1 
C887: x27+x52-y27_52 <=1 
C888: x27+x55-y27_55 <=1 
C889: x27+x56 <=1 
C890: x27+x59 <=1 
C891: x27+x60-y27_60 <=1 
C892: x27+x62 <=1 
C893: x27+x64 <=1 
C894: x27+x65 <=1 
C895: x28+x30-y28_30 <=1 
C896: x28+x31 <=1 
C897: x28+x32 <=1 
C898: x28+x33-y28_33 <=1 
C899: x28+x34-y28_34 <=1 
C900: x28+x36 <=1 
C901: x28+x38-y28_38 <=1 
C902: x28+x40-y28_40 <=1 
C903: x28+x41 <=1 
C904: x28+x42-y28_42 <=1 
C905: x28+x44-y28_44 <=1 
C906: x28+x45-y28_45 <=1 
C907: x28+x47 <=1 
C908: x28+x49 <=1 
C909: x28+x50-y28_50 <=1 
C910: x28+x51 <=1 
C911: x28+x53-y28_53 <=1 
C912: x28+x56-y28_56 <=1 
C913: x28+x59 <=1 
C914: x28+x62-y28_62 <=1 
C915: x28+x63 <=1 
C916: x28+x64-y28_64 <=1 
C917: x29+x30-y29_30 <=1 
C918: x29+x31-y29_31 <=1 
C919: x29+x32 <=1 
C920: x29+x34-y29_34 <=1 
C921: x29+x37 <=1 
C922: x29+x38-y29_38 <=1 
C923: x29+x39-y29_39 <=1 
C924: x29+x41 <=1 
C925: x29+x42 <=1 
C926: x29+x43-y29_43 <=1 
C927: x29+x44 <=1 
C928: x29+x47 <=1 
C929: x29+x48 <=1 
C930: x29+x49 <=1 
C931: x29+x50 <=1 
C932: x29+x52-y29_52 <=1 
C933: x29+x54 <=1 
C934: x29+x55-y29_55 <=1 
C935: x29+x56-y29_56 <=1 
C936: x29+x58-y29_58 <=1 
C937: x29+x61 <=1 
C938: x29+x64-y29_64 <=1 
C939: x30+x32-y30_32 <=1 
C940: x30+x35-y30_35 <=1 
C941: x30+x36-y30_36 <=1 
C942: x30+x38-y30_38 <=1 
C943: x30+x39-y30_39 <=1 
C944: x30+x40-y30_40 <=1 
C945: x30+x41 <=1 
C946: x30+x42-y30_42 <=1 
C947: x30+x44 <=1 
C948: x30+x45 <=1 
C949: x30+x46 <=1 
C950: x30+x47 <=1 
C951: x30+x48 <=1 
C952: x30+x49-y30_49 <=1 
C953: x30+x50 <=1 
C954: x30+x51-y30_51 <=1 
C955: x30+x52-y30_52 <=1 
C956: x30+x53 <=1 
C957: x30+x55 <=1 
C958: x30+x56 <=1 
C959: x30+x57 <=1 
C960: x30+x58-y30_58 <=1 
C961: x30+x59 <=1 
C962: x30+x61-y30_61 <=1 
C963: x30+x62 <=1 
C964: x30+x64 <=1 
C965: x30+x65-y30_65 <=1 
C966: x31+x32 <=1 
C967: x31+x33-y31_33 <=1 
C968: x31+x34 <=1 
C969: x31+x39-y31_39 <=1 
C970: x31+x40 <=1 
C971: x31+x43 <=1 
C972: x31+x45 <=1 
C973: x31+x48-y31_48 <=1 
C974: x31+x52 <=1 
C975: x31+x53 <=1 
C976: x31+x55-y31_55 <=1 
C977: x31+x56-y31_56 <=1 
C978: x31+x57-y31_57 <=1 
C979: x31+x58-y31_58 <=1 
C980: x31+x59-y31_59 <=1 
C981: x31+x61-y31_61 <=1 
C982: x31+x62 <=1 
C983: x31+x63 <=1 
C984: x31+x65-y31_65 <=1 
C985: x32+x33 <=1 
C986: x32+x34 <=1 
C987: x32+x35 <=1 
C988: x32+x36-y32_36 <=1 
C989: x32+x37 <=1 
C990: x32+x39 <=1 
C991: x32+x41 <=1 
C992: x32+x42-y32_42 <=1 
C993: x32+x43-y32_43 <=1 
C994: x32+x46-y32_46 <=1 
C995: x32+x50 <=1 
C996: x32+x51 <=1 
C997: x32+x52 <=1 
C998: x32+x53 <=1 
C999: x32+x54-y32_54 <=1 
C1000: x32+x56-y32_56 <=1 
C1001: x32+x57-y32_57 <=1 
C1002: x32+x58 <=1 
C1003: x32+x59-y32_59 <=1 
C1004: x32+x60-y32_60 <=1 
C1005: x32+x61-y32_61 <=1 
C1006: x32+x62 <=1 
C1007: x32+x64-y32_64 <=1 
C1008: x32+x65 <=1 
C1009: x33+x34 <=1 
C1010: x33+x37-y33_37 <=1 
C1011: x33+x39-y33_39 <=1 
C1012: x33+x40 <=1 
C1013: x33+x48 <=1 
C1014: x33+x49-y33_49 <=1 
C1015: x33+x52-y33_52 <=1 
C1016: x33+x53-y33_53 <=1 
C1017: x33+x55-y33_55 <=1 
C1018: x33+x56 <=1 
C1019: x33+x57-y33_57 <=1 
C1020: x33+x59 <=1 
C1021: x33+x61 <=1 
C1022: x33+x63 <=1 
C1023: x33+x64-y33_64 <=1 
C1024: x33+x65 <=1 
C1025: x34+x35-y34_35 <=1 
C1026: x34+x36-y34_36 <=1 
C1027: x34+x38 <=1 
C1028: x34+x39-y34_39 <=1 
C1029: x34+x40 <=1 
C1030: x34+x42 <=1 
C1031: x34+x44 <=1 
C1032: x34+x45-y34_45 <=1 
C1033: x34+x46-y34_46 <=1 
C1034: x34+x47-y34_47 <=1 
C1035: x34+x50 <=1 
C1036: x34+x51 <=1 
C1037: x34+x53 <=1 
C1038: x34+x54 <=1 
C1039: x34+x57 <=1 
C1040: x34+x58-y34_58 <=1 
C1041: x34+x59-y34_59 <=1 
C1042: x34+x60-y34_60 <=1 
C1043: x34+x63 <=1 
C1044: x34+x64-y34_64 <=1 
C1045: x34+x65 <=1 
C1046: x35+x36 <=1 
C1047: x35+x37 <=1 
C1048: x35+x38-y35_38 <=1 
C1049: x35+x39-y35_39 <=1 
C1050: x35+x42 <=1 
C1051: x35+x44-y35_44 <=1 
C1052: x35+x45 <=1 
C1053: x35+x47 <=1 
C1054: x35+x48-y35_48 <=1 
C1055: x35+x49-y35_49 <=1 
C1056: x35+x52-y35_52 <=1 
C1057: x35+x53-y35_53 <=1 
C1058: x35+x54-y35_54 <=1 
C1059: x35+x60-y35_60 <=1 
C1060: x35+x62 <=1 
C1061: x35+x63-y35_63 <=1 
C1062: x35+x64 <=1 
C1063: x35+x65-y35_65 <=1 
C1064: x36+x39-y36_39 <=1 
C1065: x36+x40-y36_40 <=1 
C1066: x36+x41-y36_41 <=1 
C1067: x36+x43-y36_43 <=1 
C1068: x36+x48 <=1 
C1069: x36+x49 <=1 
C1070: x36+x53-y36_53 <=1 
C1071: x36+x56 <=1 
C1072: x36+x57-y36_57 <=1 
C1073: x36+x58 <=1 
C1074: x36+x59-y36_59 <=1 
C1075: x36+x60 <=1 
C1076: x36+x61-y36_61 <=1 
C1077: x36+x64-y36_64 <=1 
C1078: x36+x65-y36_65 <=1 
C1079: x37+x38 <=1 
C1080: x37+x39-y37_39 <=1 
C1081: x37+x41 <=1 
C1082: x37+x44-y37_44 <=1 
C1083: x37+x48-y37_48 <=1 
C1084: x37+x50 <=1 
C1085: x37+x51 <=1 
C1086: x37+x54 <=1 
C1087: x37+x56 <=1 
C1088: x37+x57 <=1 
C1089: x37+x58-y37_58 <=1 
C1090: x37+x59 <=1 
C1091: x37+x60 <=1 
C1092: x37+x61 <=1 
C1093: x37+x64-y37_64 <=1 
C1094: x37+x65 <=1 
C1095: x38+x40 <=1 
C1096: x38+x41 <=1 
C1097: x38+x43-y38_43 <=1 
C1098: x38+x46 <=1 
C1099: x38+x47 <=1 
C1100: x38+x49 <=1 
C1101: x38+x50 <=1 
C1102: x38+x51 <=1 
C1103: x38+x52 <=1 
C1104: x38+x53-y38_53 <=1 
C1105: x38+x55 <=1 
C1106: x38+x59-y38_59 <=1 
C1107: x38+x60 <=1 
C1108: x38+x62-y38_62 <=1 
C1109: x38+x63 <=1 
C1110: x39+x40-y39_40 <=1 
C1111: x39+x41-y39_41 <=1 
C1112: x39+x43 <=1 
C1113: x39+x44-y39_44 <=1 
C1114: x39+x45 <=1 
C1115: x39+x46 <=1 
C1116: x39+x47-y39_47 <=1 
C1117: x39+x48 <=1 
C1118: x39+x49 <=1 
C1119: x39+x51-y39_51 <=1 
C1120: x39+x52-y39_52 <=1 
C1121: x39+x53 <=1 
C1122: x39+x54 <=1 
C1123: x39+x55 <=1 
C1124: x39+x57 <=1 
C1125: x39+x58 <=1 
C1126: x39+x59 <=1 
C1127: x39+x61-y39_61 <=1 
C1128: x39+x63 <=1 
C1129: x40+x44-y40_44 <=1 
C1130: x40+x46 <=1 
C1131: x40+x49 <=1 
C1132: x40+x50 <=1 
C1133: x40+x51-y40_51 <=1 
C1134: x40+x53 <=1 
C1135: x40+x57-y40_57 <=1 
C1136: x40+x60 <=1 
C1137: x40+x62-y40_62 <=1 
C1138: x40+x65 <=1 
C1139: x41+x42 <=1 
C1140: x41+x43 <=1 
C1141: x41+x45-y41_45 <=1 
C1142: x41+x46-y41_46 <=1 
C1143: x41+x48 <=1 
C1144: x41+x51 <=1 
C1145: x41+x52 <=1 
C1146: x41+x53-y41_53 <=1 
C1147: x41+x57-y41_57 <=1 
C1148: x41+x59 <=1 
C1149: x41+x60 <=1 
C1150: x41+x61 <=1 
C1151: x41+x62 <=1 
C1152: x41+x64-y41_64 <=1 
C1153: x41+x65-y41_65 <=1 
C1154: x42+x49 <=1 
C1155: x42+x51-y42_51 <=1 
C1156: x42+x53-y42_53 <=1 
C1157: x42+x54 <=1 
C1158: x42+x57 <=1 
C1159: x42+x58-y42_58 <=1 
C1160: x42+x59 <=1 
C1161: x42+x62-y42_62 <=1 
C1162: x42+x63-y42_63 <=1 
C1163: x42+x64 <=1 
C1164: x42+x65 <=1 
C1165: x43+x44 <=1 
C1166: x43+x45 <=1 
C1167: x43+x46-y43_46 <=1 
C1168: x43+x47-y43_47 <=1 
C1169: x43+x48 <=1 
C1170: x43+x49-y43_49 <=1 
C1171: x43+x51-y43_51 <=1 
C1172: x43+x52-y43_52 <=1 
C1173: x43+x53-y43_53 <=1 
C1174: x43+x55 <=1 
C1175: x43+x56 <=1 
C1176: x43+x57-y43_57 <=1 
C1177: x43+x58-y43_58 <=1 
C1178: x43+x59 <=1 
C1179: x43+x61-y43_61 <=1 
C1180: x43+x63 <=1 
C1181: x43+x64-y43_64 <=1 
C1182: x43+x65-y43_65 <=1 
C1183: x44+x45-y44_45 <=1 
C1184: x44+x46 <=1 
C1185: x44+x47-y44_47 <=1 
C1186: x44+x51-y44_51 <=1 
C1187: x44+x52-y44_52 <=1 
C1188: x44+x53-y44_53 <=1 
C1189: x44+x55-y44_55 <=1 
C1190: x44+x56 <=1 
C1191: x44+x58 <=1 
C1192: x44+x59 <=1 
C1193: x44+x60 <=1 
C1194: x44+x62 <=1 
C1195: x44+x64 <=1 
C1196: x45+x47 <=1 
C1197: x45+x49-y45_49 <=1 
C1198: x45+x50-y45_50 <=1 
C1199: x45+x51 <=1 
C1200: x45+x52 <=1 
C1201: x45+x53-y45_53 <=1 
C1202: x45+x58-y45_58 <=1 
C1203: x45+x61-y45_61 <=1 
C1204: x45+x62-y45_62 <=1 
C1205: x45+x63-y45_63 <=1 
C1206: x45+x65 <=1 
C1207: x46+x47 <=1 
C1208: x46+x48-y46_48 <=1 
C1209: x46+x49-y46_49 <=1 
C1210: x46+x50 <=1 
C1211: x46+x52 <=1 
C1212: x46+x56-y46_56 <=1 
C1213: x46+x57-y46_57 <=1 
C1214: x46+x58-y46_58 <=1 
C1215: x46+x60-y46_60 <=1 
C1216: x46+x61-y46_61 <=1 
C1217: x46+x62-y46_62 <=1 
C1218: x46+x63-y46_63 <=1 
C1219: x46+x65 <=1 
C1220: x47+x48 <=1 
C1221: x47+x50 <=1 
C1222: x47+x55 <=1 
C1223: x47+x56-y47_56 <=1 
C1224: x47+x57-y47_57 <=1 
C1225: x47+x60 <=1 
C1226: x47+x61-y47_61 <=1 
C1227: x47+x62-y47_62 <=1 
C1228: x47+x63-y47_63 <=1 
C1229: x47+x64 <=1 
C1230: x48+x52-y48_52 <=1 
C1231: x48+x53 <=1 
C1232: x48+x54-y48_54 <=1 
C1233: x48+x55 <=1 
C1234: x48+x57 <=1 
C1235: x48+x58-y48_58 <=1 
C1236: x48+x64 <=1 
C1237: x48+x65-y48_65 <=1 
C1238: x49+x50-y49_50 <=1 
C1239: x49+x54 <=1 
C1240: x49+x55 <=1 
C1241: x49+x56 <=1 
C1242: x49+x59-y49_59 <=1 
C1243: x49+x61-y49_61 <=1 
C1244: x49+x63-y49_63 <=1 
C1245: x50+x51-y50_51 <=1 
C1246: x50+x53-y50_53 <=1 
C1247: x50+x55-y50_55 <=1 
C1248: x50+x59 <=1 
C1249: x50+x60 <=1 
C1250: x50+x61 <=1 
C1251: x50+x64-y50_64 <=1 
C1252: x50+x65-y50_65 <=1 
C1253: x51+x52 <=1 
C1254: x51+x53-y51_53 <=1 
C1255: x51+x54-y51_54 <=1 
C1256: x51+x56-y51_56 <=1 
C1257: x51+x59 <=1 
C1258: x51+x60-y51_60 <=1 
C1259: x51+x62 <=1 
C1260: x51+x63-y51_63 <=1 
C1261: x51+x65 <=1 
C1262: x52+x53 <=1 
C1263: x52+x54-y52_54 <=1 
C1264: x52+x55-y52_55 <=1 
C1265: x52+x56 <=1 
C1266: x52+x58 <=1 
C1267: x52+x59 <=1 
C1268: x52+x64-y52_64 <=1 
C1269: x53+x54-y53_54 <=1 
C1270: x53+x55 <=1 
C1271: x53+x56 <=1 
C1272: x53+x58-y53_58 <=1 
C1273: x53+x60-y53_60 <=1 
C1274: x53+x62-y53_62 <=1 
C1275: x53+x63-y53_63 <=1 
C1276: x54+x55-y54_55 <=1 
C1277: x54+x59-y54_59 <=1 
C1278: x54+x60 <=1 
C1279: x54+x62-y54_62 <=1 
C1280: x54+x63 <=1 
C1281: x54+x64 <=1 
C1282: x54+x65 <=1 
C1283: x55+x59 <=1 
C1284: x55+x61 <=1 
C1285: x55+x64-y55_64 <=1 
C1286: x55+x65 <=1 
C1287: x56+x58 <=1 
C1288: x56+x60-y56_60 <=1 
C1289: x56+x61 <=1 
C1290: x56+x63-y56_63 <=1 
C1291: x56+x65 <=1 
C1292: x57+x58-y57_58 <=1 
C1293: x57+x59-y57_59 <=1 
C1294: x57+x61 <=1 
C1295: x57+x63-y57_63 <=1 
C1296: x57+x64 <=1 
C1297: x57+x65-y57_65 <=1 
C1298: x58+x59 <=1 
C1299: x58+x61-y58_61 <=1 
C1300: x58+x62-y58_62 <=1 
C1301: x58+x63-y58_63 <=1 
C1302: x58+x64-y58_64 <=1 
C1303: x58+x65 <=1 
C1304: x59+x61 <=1 
C1305: x59+x62 <=1 
C1306: x59+x64 <=1 
C1307: x59+x65 <=1 
C1308: x60+x61-y60_61 <=1 
C1309: x60+x62 <=1 
C1310: x60+x63 <=1 
C1311: x61+x63 <=1 
C1312: x61+x65 <=1 
C1313: x62+x63-y62_63 <=1 
C1314: x62+x65-y62_65 <=1 
C1315: x63+x64 <=1 
C1316: x63+x65-y63_65 <=1 
C1317: x64+x65 <=1 

binary
x0
x1
x2
x3
x4
x5
x6
x7
x8
x9
x10
x11
x12
x13
x14
x15
x16
x17
x18
x19
x20
x21
x22
x23
x24
x25
x26
x27
x28
x29
x30
x31
x32
x33
x34
x35
x36
x37
x38
x39
x40
x41
x42
x43
x44
x45
x46
x47
x48
x49
x50
x51
x52
x53
x54
x55
x56
x57
x58
x59
x60
x61
x62
x63
x64
x65
