problem_generation/data/GISP/train/er_n=66_m=1317_p=0.60_SET2_setparam=100.00_alpha=0.50_795.sol
objective value:                                 1173
x1                                                  1 	(obj:100)
x13                                                 1 	(obj:100)
x14                                                 1 	(obj:100)
x24                                                 1 	(obj:100)
x26                                                 1 	(obj:100)
x28                                                 1 	(obj:100)
x38                                                 1 	(obj:100)
x42                                                 1 	(obj:100)
x43                                                 1 	(obj:100)
x53                                                 1 	(obj:100)
x61                                                 1 	(obj:100)
x62                                                 1 	(obj:100)
y28_53                                              1 	(obj:-1)
y28_62                                              1 	(obj:-1)
y1_53                                               1 	(obj:-1)
y28_38                                              1 	(obj:-1)
y1_61                                               1 	(obj:-1)
y28_42                                              1 	(obj:-1)
y42_53                                              1 	(obj:-1)
y42_62                                              1 	(obj:-1)
y43_53                                              1 	(obj:-1)
y1_24                                               1 	(obj:-1)
y53_62                                              1 	(obj:-1)
y1_14                                               1 	(obj:-1)
y26_43                                              1 	(obj:-1)
y26_61                                              1 	(obj:-1)
y26_42                                              1 	(obj:-1)
y14_26                                              1 	(obj:-1)
y13_62                                              1 	(obj:-1)
y43_61                                              1 	(obj:-1)
y13_42                                              1 	(obj:-1)
y38_53                                              1 	(obj:-1)
y38_62                                              1 	(obj:-1)
y1_26                                               1 	(obj:-1)
y13_28                                              1 	(obj:-1)
y38_43                                              1 	(obj:-1)
y14_62                                              1 	(obj:-1)
y14_43                                              1 	(obj:-1)
y14_61                                              1 	(obj:-1)
